db/data/4218264533255622437528113221065914627.z3.out
sat
-------------------
798.220443235
